words_easy_train/words_935_SAT.qaiger
aag 31 16 0 1 15
32
2
14
16
26
22
24
10
28
18
4
30
20
8
12
6
63
34 19 2
36 35 14
38 21 12
40 38 25
42 23 6
44 43 40
46 44 36
48 27 10
50 33 16
52 51 8
54 31 29
56 54 4
58 56 52
60 58 49
62 60 46
i0 2 y1[7]
i1 1 x1[0]
i2 1 x1[6]
i3 1 x1[7]
i4 2 y1[4]
i5 2 y1[2]
i6 2 y1[3]
i7 1 x1[4]
i8 2 y1[5]
i9 2 y1[0]
i10 1 x1[1]
i11 2 y1[6]
i12 2 y1[1]
i13 1 x1[3]
i14 1 x1[5]
i15 1 x1[2]
o0 bool[0]
c
simplified
  !=
    149
    or
      invert
        1 x1
      2 y1
