words_easy_train/words_935_SAT.qaiger.qdimacs
p cnf 31 46
a 1 2 3 4 5 6 7 8 0
e 9 10 11 12 13 14 15 16 17 18 19 20 21 22 23 24 25 26 27 28 29 30 31 0
9 -1 17 0
-9 -17 0
1 -17 0
17 -7 18 0
-17 -18 0
7 -18 0
10 -6 19 0
-10 -19 0
6 -19 0
-19 12 20 0
19 -20 0
-12 -20 0
11 -3 21 0
-11 -21 0
3 -21 0
21 -20 22 0
-21 -22 0
20 -22 0
-22 -18 23 0
22 -23 0
18 -23 0
13 -5 24 0
-13 -24 0
5 -24 0
16 -8 25 0
-16 -25 0
8 -25 0
25 -4 26 0
-25 -26 0
4 -26 0
15 14 27 0
-15 -27 0
-14 -27 0
-27 -2 28 0
27 -28 0
2 -28 0
-28 -26 29 0
28 -29 0
26 -29 0
-29 24 30 0
29 -30 0
-24 -30 0
-30 -23 31 0
30 -31 0
23 -31 0
-31 0
